Route 1: 65 83 52 99 82 90 66 91 96 80
Route 2: 98 69 88 53 55 68 70 100
Route 3: 92 71 72 61 81 54 94 93
Route 4: 64 51 85 84 95 56 24
Route 5: 2 45 3 5 8 6 46 7 60
Route 6: 63 62 67 34 31 26 32 50
Route 7: 12 14 47 11 9 10 13 17
Route 8: 21 19 57 86 59 97 58
Route 9: 39 42 44 37 40 35 43
Route 10: 23 18 22 49 20 48 25
Route 11: 16 15 73 78 4 1
Route 12: 36 38 41
Route 13: 75 87 74
Route 14: 79
Route 15: 33 76 89 77
Route 16: 27 30 28 29
Vehicles: 16
Distance: 1962.56
